NODE_COORD_SECTION
Arad 20 50
Timisoara 20 100
Oradea 40 10
Zerind 25 30
Lugoj 50 120
Mehadia 50 160
Drobeta 50 200
Sibiu 100 70
Rimnicu_Vilcea 120 100
Craiova 110 180
EOF
EDGE_WEIGHT_SECTION
Arad Zerind 75
Arad Sibiu 140
Arad Timisoara 118
Zerind Oradea 71
Timisoara Lugoj 111
Lugoj Mehadia 70
Mehadia Drobeta 75
Drobeta Craiova 120
Craiova Rimnicu_Vilcea 146
Rimnicu_Vilcea Sibiu 80
Sibiu Oradea 151
EOF